c Instancia generada aleatoriamente
p edge 20 94
e 1 2
e 1 7
e 1 10
e 1 11
e 1 14
e 1 17
e 1 18
e 1 19
e 2 5
e 2 7
e 2 9
e 2 10
e 2 12
e 2 13
e 2 14
e 2 15
e 2 16
e 2 17
e 2 18
e 2 20
e 3 5
e 3 7
e 3 8
e 3 14
e 3 17
e 4 6
e 4 8
e 4 9
e 4 10
e 4 13
e 4 14
e 4 15
e 4 16
e 4 18
e 4 19
e 4 20
e 5 7
e 5 8
e 5 10
e 5 11
e 5 12
e 5 13
e 5 18
e 6 9
e 6 12
e 6 14
e 6 15
e 6 18
e 6 19
e 7 11
e 7 12
e 7 16
e 7 17
e 7 19
e 8 9
e 8 12
e 8 17
e 8 18
e 9 11
e 9 12
e 9 13
e 9 14
e 9 16
e 9 18
e 9 19
e 9 20
e 10 12
e 10 13
e 10 14
e 10 18
e 11 12
e 11 14
e 11 16
e 11 18
e 11 19
e 11 20
e 12 13
e 12 14
e 12 15
e 12 17
e 12 19
e 13 14
e 13 16
e 13 18
e 13 19
e 14 15
e 14 20
e 15 16
e 15 17
e 15 19
e 15 20
e 17 19
e 18 19
e 19 20
